\ Model Min_sub
\ LP format - for model browsing. Use MPS format to capture full model detail.
Minimize
  C0 + 24 C1
Subject To
 R0: - C0 + 1006 C1 >= 5
 R1: C0 + 804.8 C1 >= 4
Bounds
 C0 <= 1
 C1 <= 1
End
